8 8
25 20
16 0 2 5
0 18 3 5
20 5 3 1
3 19 2 4
0 14 1 5
16 19 2 3
12 19 3 4
13 10 2 1
12 9 3 4
2 10 2 2
16 13 3 1
12 17 1 3
19 3 2 2
10 16 3 1
0 4 3 1
6 9 3 2
5 4 3 4
7 5 2 1
19 19 1 5
10 6 1 1
19 20 1 5
19 2 3 1
12 11 3 4
20 2 1 3
15 11 2 5
